12 40 3 10
18 18 6 10 9 16 16 5 8 4 10 5 12 14 16 11 14 7 13 9 2 13 17 18 13 2 1 8 15 19 4 9 17 17 1 8 15 8 1 12 
8.49 2.49 7 5.76 0.33 6.15 2.94 4.68 13.94 15.08 11.16 6.44 12.51 4.97 1.49 15.52 4.58 8.57 11.27 13.53 3.21 9.51 12.42 7.26 3.39 14.54 14.55 0.7 2.1 12.96 4 14.75 2.96 7.59 7.11 2.1 8.17 6.57 2.01 2.33 
13.75 13.65 3.4 12.45 6.78 12.9 3.07 2.04 14 13.32 2.3 0.14 14.12 2.27 13.84 15.46 6.4 8.71 15.08 4.46 8.97 15.59 5.86 15.31 7.7 9.81 14.87 9.26 15.26 8.54 10.3 10.09 11.58 7.52 6.38 10.61 5.57 7.76 14.87 14.6 
9.41 10.53 0.41 2.61 13.34 1.13 7.35 15.49 12.13 10.8 1.17 9.69 3.44 4.51 10.32 14.31 7.42 6 10.36 11.79 1.61 9.01 10.53 6.79 0.4 7.71 14.06 13.34 8.23 7.89 12.88 10.24 4.62 11.08 8.88 3.13 12.42 11.24 4.38 8.54 
8 8 8 8 8 8 8 8 8 8 8 8 8 8 8 8 8 8 8 8 8 8 8 8 8 8 8 8 8 8 8 8 8 8 8 8 8 8 8 8 
2.08 9.04 0.36 9.64 2.03 14.23 7.92 12.66 12.87 3.53 5.33 7.1 5.24 7.32 14.49 3.02 15.7 3.87 14.09 10.18 14.6 7.89 7.74 14.9 2.44 0.98 9.19 14.2 4.24 15.26 12.54 5.66 5.27 3.68 8.23 2.5 6.11 3.72 6.27 11.42 
0.42 11.85 0.17 2.5 13.82 8.99 4.07 3.27 14.34 0.56 1 6.46 13.37 5.87 13.17 9.8 2.25 4.34 15.11 9.79 12.48 7.96 11.57 11.6 14.8 10.39 3.29 7.41 15.9 4.74 5.84 4.92 15.56 12.18 11.66 0.49 9.91 1.88 4.1 6.92 
6.78 11.93 4.52 2.4 2.13 11.04 11.91 8.15 9.18 2.5 8.59 12.63 15.93 13.28 11.96 12.72 10.83 14.43 9.08 5.72 4.11 12.25 1.61 3.93 7.38 1.03 11.85 1.51 15.54 0.56 5.66 15.36 1.51 8.61 2.53 13.56 8.12 5.3 5.64 4.65 
11.51 4.77 15.19 8.78 4.31 7.08 4.92 9.73 6.63 12.75 0.19 14.26 13.98 9.46 5.64 9.91 12.02 13.37 13.8 3.17 5.15 6.37 11.39 1.48 13.3 1.26 4.77 4.82 12.43 5.34 3.68 5.33 15.18 6.7 9.33 9.22 13.48 3.72 0.61 1.4 
3.53 2.68 11.81 12.15 2.4 4.73 2.86 9.37 12.17 2.09 8.93 5.07 10.35 10.99 4.71 2.03 3.28 5.64 12.12 12.79 12.99 10.64 6.52 12.78 4.58 4.64 11.87 6.15 7.89 10.87 1.51 6.09 9.85 5.05 6.17 11.82 3.59 2.76 7.77 5.96 
11.81 15.03 6.94 7.82 5.22 2.64 0.63 0.6 5.3 13.13 7.04 4.3 5.17 15.61 2.26 4.56 4.07 14.85 3.25 9.78 2.73 12.13 6.74 14.88 7.8 2.07 13.28 10.22 8.67 7.69 4.63 3.55 9.85 0.55 5.29 1.46 0.53 14.96 8.58 5.94 
0.82 15.63 6.78 11.48 6.53 15.19 14.9 2.4 6.44 9.9 5.57 10.02 14.55 9.69 12.12 6.12 12.42 9.69 11.29 4.83 14.16 7.13 12.89 13.73 8.4 13.37 12.27 11.78 2.85 12.69 9.7 4.48 12.03 14.51 13.15 13.44 1.04 10.4 8.79 4.83 
12.59 5.57 8.61 13.75 2.98 15.27 14.32 13.66 11.49 12.05 3.32 2.28 14.97 11.96 3.04 3.53 11.43 13.71 0.33 10.13 0.7 4.33 6.09 5.16 15.79 2.53 3.29 12.7 1.58 4.05 15.98 3.75 3.58 5.84 13.21 10.56 3.56 14.09 0.95 6.04 
1 1 1 1 1 1 1 1 1 1 1 1 1 1 1 1 1 1 1 1 1 1 1 1 1 1 1 1 1 1 1 1 1 1 1 1 1 1 1 1 
1 1 1 1 1 1 1 1 1 1 1 1 1 1 1 1 1 1 1 1 1 1 1 1 1 1 1 1 1 1 1 1 1 1 1 1 1 1 1 1 
1 1 1 1 1 1 1 1 1 1 1 1 1 1 1 1 1 1 1 1 1 1 1 1 1 1 1 1 1 1 1 1 1 1 1 1 1 1 1 1 
1 1 1 1 1 1 1 1 1 1 1 1 1 1 1 1 1 1 1 1 1 1 1 1 1 1 1 1 1 1 1 1 1 1 1 1 1 1 1 1 
1 1 1 1 1 1 1 1 1 1 1 1 1 1 1 1 1 1 1 1 1 1 1 1 1 1 1 1 1 1 1 1 1 1 1 1 1 1 1 1 
1 1 1 1 1 1 1 1 1 1 1 1 1 1 1 1 1 1 1 1 1 1 1 1 1 1 1 1 1 1 1 1 1 1 1 1 1 1 1 1 
1 1 1 1 1 1 1 1 1 1 1 1 1 1 1 1 1 1 1 1 1 1 1 1 1 1 1 1 1 1 1 1 1 1 1 1 1 1 1 1 
1 1 1 1 1 1 1 1 1 1 1 1 1 1 1 1 1 1 1 1 1 1 1 1 1 1 1 1 1 1 1 1 1 1 1 1 1 1 1 1 
1 1 1 1 1 1 1 1 1 1 1 1 1 1 1 1 1 1 1 1 1 1 1 1 1 1 1 1 1 1 1 1 1 1 1 1 1 1 1 1 
1 1 1 1 1 1 1 1 1 1 1 1 1 1 1 1 1 1 1 1 1 1 1 1 1 1 1 1 1 1 1 1 1 1 1 1 1 1 1 1 
1 1 1 1 1 1 1 1 1 1 1 1 1 1 1 1 1 1 1 1 1 1 1 1 1 1 1 1 1 1 1 1 1 1 1 1 1 1 1 1 
1 1 1 1 1 1 1 1 1 1 1 1 1 1 1 1 1 1 1 1 1 1 1 1 1 1 1 1 1 1 1 1 1 1 1 1 1 1 1 1 
0.01 0.01 0.01 0.01 0.01 0.01 0.01 0.01 0.01 0.01 0.01 0.01 0.01 0.01 0.01 0.01 0.01 0.01 0.01 0.01 0.01 0.01 0.01 0.01 0.01 0.01 0.01 0.01 0.01 0.01 0.01 0.01 0.01 0.01 0.01 0.01 0.01 0.01 0.01 0.01 
0.02 0.02 0.02 0.02 0.02 0.02 0.02 0.02 0.02 0.02 0.02 0.02 0.02 0.02 0.02 0.02 0.02 0.02 0.02 0.02 0.02 0.02 0.02 0.02 0.02 0.02 0.02 0.02 0.02 0.02 0.02 0.02 0.02 0.02 0.02 0.02 0.02 0.02 0.02 0.02 
0.03 0.03 0.03 0.03 0.03 0.03 0.03 0.03 0.03 0.03 0.03 0.03 0.03 0.03 0.03 0.03 0.03 0.03 0.03 0.03 0.03 0.03 0.03 0.03 0.03 0.03 0.03 0.03 0.03 0.03 0.03 0.03 0.03 0.03 0.03 0.03 0.03 0.03 0.03 0.03 
0.04 0.04 0.04 0.04 0.04 0.04 0.04 0.04 0.04 0.04 0.04 0.04 0.04 0.04 0.04 0.04 0.04 0.04 0.04 0.04 0.04 0.04 0.04 0.04 0.04 0.04 0.04 0.04 0.04 0.04 0.04 0.04 0.04 0.04 0.04 0.04 0.04 0.04 0.04 0.04 
0.125 0.125 0.125 0.125 0.125 0.125 0.125 0.125 0.125 0.125 0.125 0.125 0.125 0.125 0.125 0.125 0.125 0.125 0.125 0.125 0.125 0.125 0.125 0.125 0.125 0.125 0.125 0.125 0.125 0.125 0.125 0.125 0.125 0.125 0.125 0.125 0.125 0.125 0.125 0.125 
0.25 0.25 0.25 0.25 0.25 0.25 0.25 0.25 0.25 0.25 0.25 0.25 0.25 0.25 0.25 0.25 0.25 0.25 0.25 0.25 0.25 0.25 0.25 0.25 0.25 0.25 0.25 0.25 0.25 0.25 0.25 0.25 0.25 0.25 0.25 0.25 0.25 0.25 0.25 0.25 
0.375 0.375 0.375 0.375 0.375 0.375 0.375 0.375 0.375 0.375 0.375 0.375 0.375 0.375 0.375 0.375 0.375 0.375 0.375 0.375 0.375 0.375 0.375 0.375 0.375 0.375 0.375 0.375 0.375 0.375 0.375 0.375 0.375 0.375 0.375 0.375 0.375 0.375 0.375 0.375 
0.5 0.5 0.5 0.5 0.5 0.5 0.5 0.5 0.5 0.5 0.5 0.5 0.5 0.5 0.5 0.5 0.5 0.5 0.5 0.5 0.5 0.5 0.5 0.5 0.5 0.5 0.5 0.5 0.5 0.5 0.5 0.5 0.5 0.5 0.5 0.5 0.5 0.5 0.5 0.5 
0.625 0.625 0.625 0.625 0.625 0.625 0.625 0.625 0.625 0.625 0.625 0.625 0.625 0.625 0.625 0.625 0.625 0.625 0.625 0.625 0.625 0.625 0.625 0.625 0.625 0.625 0.625 0.625 0.625 0.625 0.625 0.625 0.625 0.625 0.625 0.625 0.625 0.625 0.625 0.625 
0.75 0.75 0.75 0.75 0.75 0.75 0.75 0.75 0.75 0.75 0.75 0.75 0.75 0.75 0.75 0.75 0.75 0.75 0.75 0.75 0.75 0.75 0.75 0.75 0.75 0.75 0.75 0.75 0.75 0.75 0.75 0.75 0.75 0.75 0.75 0.75 0.75 0.75 0.75 0.75 
0.875 0.875 0.875 0.875 0.875 0.875 0.875 0.875 0.875 0.875 0.875 0.875 0.875 0.875 0.875 0.875 0.875 0.875 0.875 0.875 0.875 0.875 0.875 0.875 0.875 0.875 0.875 0.875 0.875 0.875 0.875 0.875 0.875 0.875 0.875 0.875 0.875 0.875 0.875 0.875 
1 1 1 1 1 1 1 1 1 1 1 1 1 1 1 1 1 1 1 1 1 1 1 1 1 1 1 1 1 1 1 1 1 1 1 1 1 1 1 1 
